# ALSA Configuration for The Silent Steno
# Optimized for low-latency audio pipeline with Bluetooth support
#
# This configuration provides:
# - Low-latency PCM devices for real-time audio processing
# - Bluetooth audio device integration
# - Optimized buffer and period settings
# - Multiple device configurations for different use cases

# Default PCM device configuration
pcm.!default {
    type hw
    card 0
    device 0
    rate 44100
    channels 2
    format S16_LE
    period_size 512
    buffer_size 2048
    periods 4
}

# Default control device
ctl.!default {
    type hw
    card 0
}

# Ultra low-latency PCM device
pcm.ultra_low_latency {
    type hw
    card 0
    device 0
    rate 44100
    channels 2
    format S16_LE
    period_size 128
    buffer_size 512
    periods 2
}

# Low-latency PCM device (main configuration)
pcm.low_latency {
    type hw
    card 0
    device 0
    rate 44100
    channels 2
    format S16_LE
    period_size 256
    buffer_size 1024
    periods 2
}

# Balanced latency/quality PCM device
pcm.balanced {
    type hw
    card 0
    device 0
    rate 44100
    channels 2
    format S16_LE
    period_size 512
    buffer_size 2048
    periods 4
}

# High quality PCM device
pcm.high_quality {
    type hw
    card 0
    device 0
    rate 48000
    channels 2
    format S24_LE
    period_size 1024
    buffer_size 4096
    periods 4
}

# Bluetooth PCM device for A2DP
pcm.bluetooth {
    type pulse
    server "unix:/run/user/1000/pulse/native"
    device "bluez_sink"
}

# Bluetooth source for A2DP input
pcm.bluetooth_source {
    type pulse
    server "unix:/run/user/1000/pulse/native"
    device "bluez_source"
}

# DMIX configuration for mixing multiple streams
pcm.dmix_low_latency {
    type dmix
    ipc_key 1024
    ipc_perm 0666
    slave {
        pcm "hw:0,0"
        rate 44100
        channels 2
        format S16_LE
        period_time 0
        period_size 256
        buffer_time 0
        buffer_size 1024
    }
    bindings {
        0 0
        1 1
    }
}

# DSNOOP configuration for multiple capture streams
pcm.dsnoop_low_latency {
    type dsnoop
    ipc_key 2048
    ipc_perm 0666
    slave {
        pcm "hw:0,0"
        rate 44100
        channels 2
        format S16_LE
        period_time 0
        period_size 256
        buffer_time 0
        buffer_size 1024
    }
    bindings {
        0 0
        1 1
    }
}

# Full duplex device using dmix and dsnoop
pcm.duplex {
    type asym
    playback.pcm "dmix_low_latency"
    capture.pcm "dsnoop_low_latency"
}

# Null device for testing
pcm.null {
    type null
}

# File output for debugging
pcm.file_output {
    type file
    file "/tmp/audio_output.wav"
    format S16_LE
    channels 2
    rate 44100
}

# Plugin configurations
pcm_plugins {
    # Sample rate converter quality
    rate_converter "samplerate"
    rate_converter_quality "medium"
    
    # Default plugin path
    plugin_dir "/usr/lib/alsa-lib"
}

# Hooks for automatic configuration
hooks {
    load_on_startup {
        type "sh"
        cmd "echo 'ALSA low-latency configuration loaded'"
    }
}

# Control interface definitions
ctl.low_latency {
    type hw
    card 0
}

ctl.bluetooth {
    type pulse
    server "unix:/run/user/1000/pulse/native"
}

# Hardware-specific optimizations for Raspberry Pi 5
pcm.rpi5_optimized {
    type hw
    card 0
    device 0
    rate 44100
    channels 2
    format S16_LE
    period_size 256
    buffer_size 1024
    periods 2
    
    # Pi 5 specific optimizations
    tstamp_mode enable
    period_event 0
    disable_softvol true
}

# USB audio interface support
pcm.usb_audio {
    type hw
    card 1  # Assuming USB audio is card 1
    device 0
    rate 48000
    channels 2
    format S24_LE
    period_size 512
    buffer_size 2048
    periods 4
}

# Loopback device for audio monitoring
pcm.loopback {
    type hw
    card Loopback
    device 0
    subdevice 0
    rate 44100
    channels 2
    format S16_LE
}

# Memory-mapped I/O optimizations
defaults.pcm.nonblock 1
defaults.pcm.compat 0
defaults.timer.class 2
defaults.timer.sclass 0
defaults.timer.card 0
defaults.timer.device 0
defaults.timer.subdevice 0

# Latency optimization settings
defaults.pcm.dmix.rate 44100
defaults.pcm.dmix.format S16_LE
defaults.pcm.dmix.card 0
defaults.pcm.dmix.device 0

defaults.pcm.dsnoop.rate 44100
defaults.pcm.dsnoop.format S16_LE
defaults.pcm.dsnoop.card 0
defaults.pcm.dsnoop.device 0

# Jack detection and automatic switching
pcm.jack_detect {
    type hooks
    slave.pcm "hw:0,0"
    hooks.0 {
        type ctl_elems
        hook_args [
            {
                name "Headphone Jack"
                lock true
                preserve true
                value on
            }
        ]
    }
}

# Real-time processing optimizations
pcm.realtime {
    type hw
    card 0
    device 0
    rate 44100
    channels 2
    format S16_LE
    period_size 128
    buffer_size 256
    periods 2
    
    # Real-time specific settings
    tstamp_mode enable
    tstamp_type monotonic
    period_event 0
    disable_softvol true
    mmap_emul false
}

# Multi-channel support for future expansion
pcm.multichannel {
    type hw
    card 0
    device 0
    rate 48000
    channels 8
    format S24_LE
    period_size 512
    buffer_size 2048
    periods 4
}

# Rate conversion with different quality settings
pcm.rate_convert_low {
    type rate
    slave {
        pcm "hw:0,0"
        rate 48000
    }
    converter "linear"
}

pcm.rate_convert_high {
    type rate
    slave {
        pcm "hw:0,0"
        rate 48000
    }
    converter "speexrate_medium"
}

# Volume control integration
pcm.softvol {
    type softvol
    slave.pcm "low_latency"
    control {
        name "PCM"
        card 0
    }
    min_dB -51.0
    max_dB 0.0
    resolution 256
}

# Audio routing matrix (for complex setups)
pcm.matrix {
    type route
    slave.pcm "hw:0,0"
    slave.channels 2
    ttable.0.0 1
    ttable.1.1 1
}

# Conference mode (mono mix)
pcm.conference {
    type route
    slave.pcm "hw:0,0"
    slave.channels 2
    ttable.0.0 0.5
    ttable.0.1 0.5
    ttable.1.0 0.5
    ttable.1.1 0.5
}

# Emergency fallback configuration
pcm.fallback {
    type hw
    card 0
    device 0
    # Use safe defaults if optimization fails
    rate 44100
    channels 2
    format S16_LE
    period_size 1024
    buffer_size 4096
    periods 4
}

# End of ALSA configuration
# Optimized for The Silent Steno low-latency audio pipeline
